\ Model VRPTW_Exato
\ LP format - for model browsing. Use MPS format to capture full model detail.
\ Signature: 0x3737752159c61363
Minimize
  0 x[0,0,0] + 0 x[0,0,1] + 15.23154621172782 x[0,1,0]
   + 15.23154621172782 x[0,1,1] + 18 x[0,2,0] + 18 x[0,2,1]
   + 22.3606797749979 x[0,3,0] + 22.3606797749979 x[0,3,1] + 25 x[0,4,0]
   + 25 x[0,4,1] + 15.23154621172782 x[1,0,0] + 15.23154621172782 x[1,0,1]
   + 0 x[1,1,0] + 0 x[1,1,1] + 32.55764119219941 x[1,2,0]
   + 32.55764119219941 x[1,2,1] + 14.56021977856104 x[1,3,0]
   + 14.56021977856104 x[1,3,1] + 32.20248437620923 x[1,4,0]
   + 32.20248437620923 x[1,4,1] + 15.23154621172782 x[1,5,0]
   + 15.23154621172782 x[1,5,1] + 18 x[2,0,0] + 18 x[2,0,1]
   + 32.55764119219941 x[2,1,0] + 32.55764119219941 x[2,1,1] + 0 x[2,2,0]
   + 0 x[2,2,1] + 34.40930106817051 x[2,3,0] + 34.40930106817051 x[2,3,1]
   + 20.22374841615668 x[2,4,0] + 20.22374841615668 x[2,4,1] + 18 x[2,5,0]
   + 18 x[2,5,1] + 22.3606797749979 x[3,0,0] + 22.3606797749979 x[3,0,1]
   + 14.56021977856104 x[3,1,0] + 14.56021977856104 x[3,1,1]
   + 34.40930106817051 x[3,2,0] + 34.40930106817051 x[3,2,1] + 0 x[3,3,0]
   + 0 x[3,3,1] + 25 x[3,4,0] + 25 x[3,4,1] + 22.3606797749979 x[3,5,0]
   + 22.3606797749979 x[3,5,1] + 25 x[4,0,0] + 25 x[4,0,1]
   + 32.20248437620923 x[4,1,0] + 32.20248437620923 x[4,1,1]
   + 20.22374841615668 x[4,2,0] + 20.22374841615668 x[4,2,1] + 25 x[4,3,0]
   + 25 x[4,3,1] + 0 x[4,4,0] + 0 x[4,4,1] + 25 x[4,5,0] + 25 x[4,5,1]
   + 15.23154621172782 x[5,1,0] + 15.23154621172782 x[5,1,1] + 18 x[5,2,0]
   + 18 x[5,2,1] + 22.3606797749979 x[5,3,0] + 22.3606797749979 x[5,3,1]
   + 25 x[5,4,0] + 25 x[5,4,1] + 0 x[5,5,0] + 0 x[5,5,1]
Subject To
 entrada_1: x[0,1,0] + x[0,1,1] + x[2,1,0] + x[2,1,1] + x[3,1,0] + x[3,1,1]
   + x[4,1,0] + x[4,1,1] + x[5,1,0] + x[5,1,1] = 1
 saida_1: x[1,0,0] + x[1,0,1] + x[1,2,0] + x[1,2,1] + x[1,3,0] + x[1,3,1]
   + x[1,4,0] + x[1,4,1] + x[1,5,0] + x[1,5,1] = 1
 entrada_2: x[0,2,0] + x[0,2,1] + x[1,2,0] + x[1,2,1] + x[3,2,0] + x[3,2,1]
   + x[4,2,0] + x[4,2,1] + x[5,2,0] + x[5,2,1] = 1
 saida_2: x[2,0,0] + x[2,0,1] + x[2,1,0] + x[2,1,1] + x[2,3,0] + x[2,3,1]
   + x[2,4,0] + x[2,4,1] + x[2,5,0] + x[2,5,1] = 1
 entrada_3: x[0,3,0] + x[0,3,1] + x[1,3,0] + x[1,3,1] + x[2,3,0] + x[2,3,1]
   + x[4,3,0] + x[4,3,1] + x[5,3,0] + x[5,3,1] = 1
 saida_3: x[3,0,0] + x[3,0,1] + x[3,1,0] + x[3,1,1] + x[3,2,0] + x[3,2,1]
   + x[3,4,0] + x[3,4,1] + x[3,5,0] + x[3,5,1] = 1
 entrada_4: x[0,4,0] + x[0,4,1] + x[1,4,0] + x[1,4,1] + x[2,4,0] + x[2,4,1]
   + x[3,4,0] + x[3,4,1] + x[5,4,0] + x[5,4,1] = 1
 saida_4: x[4,0,0] + x[4,0,1] + x[4,1,0] + x[4,1,1] + x[4,2,0] + x[4,2,1]
   + x[4,3,0] + x[4,3,1] + x[4,5,0] + x[4,5,1] = 1
 saida_deposito_0: x[0,1,0] + x[0,2,0] + x[0,3,0] + x[0,4,0] + x[0,5,0]
   = 1
 retorno_deposito_0: x[0,5,0] + x[1,5,0] + x[2,5,0] + x[3,5,0] + x[4,5,0]
   = 1
 saida_deposito_1: x[0,1,1] + x[0,2,1] + x[0,3,1] + x[0,4,1] + x[0,5,1]
   = 1
 retorno_deposito_1: x[0,5,1] + x[1,5,1] + x[2,5,1] + x[3,5,1] + x[4,5,1]
   = 1
 continuidade_1_0: x[0,1,0] - x[1,0,0] - x[1,2,0] - x[1,3,0] - x[1,4,0]
   - x[1,5,0] + x[2,1,0] + x[3,1,0] + x[4,1,0] + x[5,1,0] = 0
 continuidade_2_0: x[0,2,0] + x[1,2,0] - x[2,0,0] - x[2,1,0] - x[2,3,0]
   - x[2,4,0] - x[2,5,0] + x[3,2,0] + x[4,2,0] + x[5,2,0] = 0
 continuidade_3_0: x[0,3,0] + x[1,3,0] + x[2,3,0] - x[3,0,0] - x[3,1,0]
   - x[3,2,0] - x[3,4,0] - x[3,5,0] + x[4,3,0] + x[5,3,0] = 0
 continuidade_4_0: x[0,4,0] + x[1,4,0] + x[2,4,0] + x[3,4,0] - x[4,0,0]
   - x[4,1,0] - x[4,2,0] - x[4,3,0] - x[4,5,0] + x[5,4,0] = 0
 continuidade_1_1: x[0,1,1] - x[1,0,1] - x[1,2,1] - x[1,3,1] - x[1,4,1]
   - x[1,5,1] + x[2,1,1] + x[3,1,1] + x[4,1,1] + x[5,1,1] = 0
 continuidade_2_1: x[0,2,1] + x[1,2,1] - x[2,0,1] - x[2,1,1] - x[2,3,1]
   - x[2,4,1] - x[2,5,1] + x[3,2,1] + x[4,2,1] + x[5,2,1] = 0
 continuidade_3_1: x[0,3,1] + x[1,3,1] + x[2,3,1] - x[3,0,1] - x[3,1,1]
   - x[3,2,1] - x[3,4,1] - x[3,5,1] + x[4,3,1] + x[5,3,1] = 0
 continuidade_4_1: x[0,4,1] + x[1,4,1] + x[2,4,1] + x[3,4,1] - x[4,0,1]
   - x[4,1,1] - x[4,2,1] - x[4,3,1] - x[4,5,1] + x[5,4,1] = 0
 carga_deposito_0: u[0,0] = 0
 capacidade_max_0_0: u[0,0] <= 36
 fluxo_carga_0_1_0: - 36 x[0,1,0] - u[0,0] + u[1,0] >= -26
 fluxo_carga_0_2_0: - 36 x[0,2,0] - u[0,0] + u[2,0] >= -29
 fluxo_carga_0_3_0: - 36 x[0,3,0] - u[0,0] + u[3,0] >= -23
 fluxo_carga_0_4_0: - 36 x[0,4,0] - u[0,0] + u[4,0] >= -17
 capacidade_max_1_0: u[1,0] <= 36
 fluxo_carga_1_2_0: - 36 x[1,2,0] - u[1,0] + u[2,0] >= -29
 fluxo_carga_1_3_0: - 36 x[1,3,0] - u[1,0] + u[3,0] >= -23
 fluxo_carga_1_4_0: - 36 x[1,4,0] - u[1,0] + u[4,0] >= -17
 capacidade_max_2_0: u[2,0] <= 36
 fluxo_carga_2_1_0: - 36 x[2,1,0] + u[1,0] - u[2,0] >= -26
 fluxo_carga_2_3_0: - 36 x[2,3,0] - u[2,0] + u[3,0] >= -23
 fluxo_carga_2_4_0: - 36 x[2,4,0] - u[2,0] + u[4,0] >= -17
 capacidade_max_3_0: u[3,0] <= 36
 fluxo_carga_3_1_0: - 36 x[3,1,0] + u[1,0] - u[3,0] >= -26
 fluxo_carga_3_2_0: - 36 x[3,2,0] + u[2,0] - u[3,0] >= -29
 fluxo_carga_3_4_0: - 36 x[3,4,0] - u[3,0] + u[4,0] >= -17
 capacidade_max_4_0: u[4,0] <= 36
 fluxo_carga_4_1_0: - 36 x[4,1,0] + u[1,0] - u[4,0] >= -26
 fluxo_carga_4_2_0: - 36 x[4,2,0] + u[2,0] - u[4,0] >= -29
 fluxo_carga_4_3_0: - 36 x[4,3,0] + u[3,0] - u[4,0] >= -23
 capacidade_max_5_0: u[5,0] <= 36
 fluxo_carga_5_1_0: - 36 x[5,1,0] + u[1,0] - u[5,0] >= -26
 fluxo_carga_5_2_0: - 36 x[5,2,0] + u[2,0] - u[5,0] >= -29
 fluxo_carga_5_3_0: - 36 x[5,3,0] + u[3,0] - u[5,0] >= -23
 fluxo_carga_5_4_0: - 36 x[5,4,0] + u[4,0] - u[5,0] >= -17
 carga_deposito_1: u[0,1] = 0
 capacidade_max_0_1: u[0,1] <= 36
 fluxo_carga_0_1_1: - 36 x[0,1,1] - u[0,1] + u[1,1] >= -26
 fluxo_carga_0_2_1: - 36 x[0,2,1] - u[0,1] + u[2,1] >= -29
 fluxo_carga_0_3_1: - 36 x[0,3,1] - u[0,1] + u[3,1] >= -23
 fluxo_carga_0_4_1: - 36 x[0,4,1] - u[0,1] + u[4,1] >= -17
 capacidade_max_1_1: u[1,1] <= 36
 fluxo_carga_1_2_1: - 36 x[1,2,1] - u[1,1] + u[2,1] >= -29
 fluxo_carga_1_3_1: - 36 x[1,3,1] - u[1,1] + u[3,1] >= -23
 fluxo_carga_1_4_1: - 36 x[1,4,1] - u[1,1] + u[4,1] >= -17
 capacidade_max_2_1: u[2,1] <= 36
 fluxo_carga_2_1_1: - 36 x[2,1,1] + u[1,1] - u[2,1] >= -26
 fluxo_carga_2_3_1: - 36 x[2,3,1] - u[2,1] + u[3,1] >= -23
 fluxo_carga_2_4_1: - 36 x[2,4,1] - u[2,1] + u[4,1] >= -17
 capacidade_max_3_1: u[3,1] <= 36
 fluxo_carga_3_1_1: - 36 x[3,1,1] + u[1,1] - u[3,1] >= -26
 fluxo_carga_3_2_1: - 36 x[3,2,1] + u[2,1] - u[3,1] >= -29
 fluxo_carga_3_4_1: - 36 x[3,4,1] - u[3,1] + u[4,1] >= -17
 capacidade_max_4_1: u[4,1] <= 36
 fluxo_carga_4_1_1: - 36 x[4,1,1] + u[1,1] - u[4,1] >= -26
 fluxo_carga_4_2_1: - 36 x[4,2,1] + u[2,1] - u[4,1] >= -29
 fluxo_carga_4_3_1: - 36 x[4,3,1] + u[3,1] - u[4,1] >= -23
 capacidade_max_5_1: u[5,1] <= 36
 fluxo_carga_5_1_1: - 36 x[5,1,1] + u[1,1] - u[5,1] >= -26
 fluxo_carga_5_2_1: - 36 x[5,2,1] + u[2,1] - u[5,1] >= -29
 fluxo_carga_5_3_1: - 36 x[5,3,1] + u[3,1] - u[5,1] >= -23
 fluxo_carga_5_4_1: - 36 x[5,4,1] + u[4,1] - u[5,1] >= -17
 inicio_zero_0: s[0,0] = 0
 tw_inicio_0_0: s[0,0] >= 0
 tw_fim_0_0: s[0,0] <= 9999
 tempo_chegada_0_1_0: 100000 x[0,1,0] + s[0,0] - s[1,0]
   <= 99984.76845378827
 tempo_chegada_0_2_0: 100000 x[0,2,0] + s[0,0] - s[2,0] <= 99982
 tempo_chegada_0_3_0: 100000 x[0,3,0] + s[0,0] - s[3,0] <= 99977.639320225
 tempo_chegada_0_4_0: 100000 x[0,4,0] + s[0,0] - s[4,0] <= 99975
 tempo_chegada_0_5_0: 100000 x[0,5,0] + s[0,0] - s[5,0] <= 100000
 tw_inicio_1_0: s[1,0] >= 0
 tw_fim_1_0: s[1,0] <= 9999
 tempo_chegada_1_0_0: 100000 x[1,0,0] - s[0,0] + s[1,0]
   <= 99984.76845378827
 tempo_chegada_1_2_0: 100000 x[1,2,0] + s[1,0] - s[2,0]
   <= 99967.44235880781
 tempo_chegada_1_3_0: 100000 x[1,3,0] + s[1,0] - s[3,0]
   <= 99985.43978022144
 tempo_chegada_1_4_0: 100000 x[1,4,0] + s[1,0] - s[4,0]
   <= 99967.7975156238
 tempo_chegada_1_5_0: 100000 x[1,5,0] + s[1,0] - s[5,0]
   <= 99984.76845378827
 tw_inicio_2_0: s[2,0] >= 0
 tw_fim_2_0: s[2,0] <= 9999
 tempo_chegada_2_0_0: 100000 x[2,0,0] - s[0,0] + s[2,0] <= 99982
 tempo_chegada_2_1_0: 100000 x[2,1,0] - s[1,0] + s[2,0]
   <= 99967.44235880781
 tempo_chegada_2_3_0: 100000 x[2,3,0] + s[2,0] - s[3,0]
   <= 99965.59069893183
 tempo_chegada_2_4_0: 100000 x[2,4,0] + s[2,0] - s[4,0]
   <= 99979.77625158384
 tempo_chegada_2_5_0: 100000 x[2,5,0] + s[2,0] - s[5,0] <= 99982
 tw_inicio_3_0: s[3,0] >= 0
 tw_fim_3_0: s[3,0] <= 9999
 tempo_chegada_3_0_0: 100000 x[3,0,0] - s[0,0] + s[3,0] <= 99977.639320225
 tempo_chegada_3_1_0: 100000 x[3,1,0] - s[1,0] + s[3,0]
   <= 99985.43978022144
 tempo_chegada_3_2_0: 100000 x[3,2,0] - s[2,0] + s[3,0]
   <= 99965.59069893183
 tempo_chegada_3_4_0: 100000 x[3,4,0] + s[3,0] - s[4,0] <= 99975
 tempo_chegada_3_5_0: 100000 x[3,5,0] + s[3,0] - s[5,0] <= 99977.639320225
 tw_inicio_4_0: s[4,0] >= 0
 tw_fim_4_0: s[4,0] <= 9999
 tempo_chegada_4_0_0: 100000 x[4,0,0] - s[0,0] + s[4,0] <= 99975
 tempo_chegada_4_1_0: 100000 x[4,1,0] - s[1,0] + s[4,0]
   <= 99967.7975156238
 tempo_chegada_4_2_0: 100000 x[4,2,0] - s[2,0] + s[4,0]
   <= 99979.77625158384
 tempo_chegada_4_3_0: 100000 x[4,3,0] - s[3,0] + s[4,0] <= 99975
 tempo_chegada_4_5_0: 100000 x[4,5,0] + s[4,0] - s[5,0] <= 99975
 tw_inicio_5_0: s[5,0] >= 0
 tw_fim_5_0: s[5,0] <= 9999
 tempo_chegada_5_0_0: 100000 x[5,0,0] - s[0,0] + s[5,0] <= 100000
 tempo_chegada_5_1_0: 100000 x[5,1,0] - s[1,0] + s[5,0]
   <= 99984.76845378827
 tempo_chegada_5_2_0: 100000 x[5,2,0] - s[2,0] + s[5,0] <= 99982
 tempo_chegada_5_3_0: 100000 x[5,3,0] - s[3,0] + s[5,0] <= 99977.639320225
 tempo_chegada_5_4_0: 100000 x[5,4,0] - s[4,0] + s[5,0] <= 99975
 inicio_zero_1: s[0,1] = 0
 tw_inicio_0_1: s[0,1] >= 0
 tw_fim_0_1: s[0,1] <= 9999
 tempo_chegada_0_1_1: 100000 x[0,1,1] + s[0,1] - s[1,1]
   <= 99984.76845378827
 tempo_chegada_0_2_1: 100000 x[0,2,1] + s[0,1] - s[2,1] <= 99982
 tempo_chegada_0_3_1: 100000 x[0,3,1] + s[0,1] - s[3,1] <= 99977.639320225
 tempo_chegada_0_4_1: 100000 x[0,4,1] + s[0,1] - s[4,1] <= 99975
 tempo_chegada_0_5_1: 100000 x[0,5,1] + s[0,1] - s[5,1] <= 100000
 tw_inicio_1_1: s[1,1] >= 0
 tw_fim_1_1: s[1,1] <= 9999
 tempo_chegada_1_0_1: 100000 x[1,0,1] - s[0,1] + s[1,1]
   <= 99984.76845378827
 tempo_chegada_1_2_1: 100000 x[1,2,1] + s[1,1] - s[2,1]
   <= 99967.44235880781
 tempo_chegada_1_3_1: 100000 x[1,3,1] + s[1,1] - s[3,1]
   <= 99985.43978022144
 tempo_chegada_1_4_1: 100000 x[1,4,1] + s[1,1] - s[4,1]
   <= 99967.7975156238
 tempo_chegada_1_5_1: 100000 x[1,5,1] + s[1,1] - s[5,1]
   <= 99984.76845378827
 tw_inicio_2_1: s[2,1] >= 0
 tw_fim_2_1: s[2,1] <= 9999
 tempo_chegada_2_0_1: 100000 x[2,0,1] - s[0,1] + s[2,1] <= 99982
 tempo_chegada_2_1_1: 100000 x[2,1,1] - s[1,1] + s[2,1]
   <= 99967.44235880781
 tempo_chegada_2_3_1: 100000 x[2,3,1] + s[2,1] - s[3,1]
   <= 99965.59069893183
 tempo_chegada_2_4_1: 100000 x[2,4,1] + s[2,1] - s[4,1]
   <= 99979.77625158384
 tempo_chegada_2_5_1: 100000 x[2,5,1] + s[2,1] - s[5,1] <= 99982
 tw_inicio_3_1: s[3,1] >= 0
 tw_fim_3_1: s[3,1] <= 9999
 tempo_chegada_3_0_1: 100000 x[3,0,1] - s[0,1] + s[3,1] <= 99977.639320225
 tempo_chegada_3_1_1: 100000 x[3,1,1] - s[1,1] + s[3,1]
   <= 99985.43978022144
 tempo_chegada_3_2_1: 100000 x[3,2,1] - s[2,1] + s[3,1]
   <= 99965.59069893183
 tempo_chegada_3_4_1: 100000 x[3,4,1] + s[3,1] - s[4,1] <= 99975
 tempo_chegada_3_5_1: 100000 x[3,5,1] + s[3,1] - s[5,1] <= 99977.639320225
 tw_inicio_4_1: s[4,1] >= 0
 tw_fim_4_1: s[4,1] <= 9999
 tempo_chegada_4_0_1: 100000 x[4,0,1] - s[0,1] + s[4,1] <= 99975
 tempo_chegada_4_1_1: 100000 x[4,1,1] - s[1,1] + s[4,1]
   <= 99967.7975156238
 tempo_chegada_4_2_1: 100000 x[4,2,1] - s[2,1] + s[4,1]
   <= 99979.77625158384
 tempo_chegada_4_3_1: 100000 x[4,3,1] - s[3,1] + s[4,1] <= 99975
 tempo_chegada_4_5_1: 100000 x[4,5,1] + s[4,1] - s[5,1] <= 99975
 tw_inicio_5_1: s[5,1] >= 0
 tw_fim_5_1: s[5,1] <= 9999
 tempo_chegada_5_0_1: 100000 x[5,0,1] - s[0,1] + s[5,1] <= 100000
 tempo_chegada_5_1_1: 100000 x[5,1,1] - s[1,1] + s[5,1]
   <= 99984.76845378827
 tempo_chegada_5_2_1: 100000 x[5,2,1] - s[2,1] + s[5,1] <= 99982
 tempo_chegada_5_3_1: 100000 x[5,3,1] - s[3,1] + s[5,1] <= 99977.639320225
 tempo_chegada_5_4_1: 100000 x[5,4,1] - s[4,1] + s[5,1] <= 99975
Bounds
Binaries
 x[0,0,0] x[0,0,1] x[0,1,0] x[0,1,1] x[0,2,0] x[0,2,1] x[0,3,0] x[0,3,1]
 x[0,4,0] x[0,4,1] x[0,5,0] x[0,5,1] x[1,0,0] x[1,0,1] x[1,1,0] x[1,1,1]
 x[1,2,0] x[1,2,1] x[1,3,0] x[1,3,1] x[1,4,0] x[1,4,1] x[1,5,0] x[1,5,1]
 x[2,0,0] x[2,0,1] x[2,1,0] x[2,1,1] x[2,2,0] x[2,2,1] x[2,3,0] x[2,3,1]
 x[2,4,0] x[2,4,1] x[2,5,0] x[2,5,1] x[3,0,0] x[3,0,1] x[3,1,0] x[3,1,1]
 x[3,2,0] x[3,2,1] x[3,3,0] x[3,3,1] x[3,4,0] x[3,4,1] x[3,5,0] x[3,5,1]
 x[4,0,0] x[4,0,1] x[4,1,0] x[4,1,1] x[4,2,0] x[4,2,1] x[4,3,0] x[4,3,1]
 x[4,4,0] x[4,4,1] x[4,5,0] x[4,5,1] x[5,0,0] x[5,0,1] x[5,1,0] x[5,1,1]
 x[5,2,0] x[5,2,1] x[5,3,0] x[5,3,1] x[5,4,0] x[5,4,1] x[5,5,0] x[5,5,1]
End
